NAME : RC204.4442.tour
COMMENT : Cost = 0_4442
COMMENT : Found by LKH [Keld Helsgaun] Wed Sep 13 18:34:40 2017
TYPE : TOUR
DIMENSION : 53
TOUR_SECTION
1
42
43
45
40
39
38
36
37
41
44
2
4
6
46
9
47
5
8
7
3
52
13
15
48
18
17
16
12
10
14
11
53
51
35
32
30
28
27
29
31
33
34
19
49
22
24
26
20
50
21
23
25
-1
EOF
